p cnf 119 411
61 72 84 0
67 78 0
56 71 0
73 90 91 95 0
49 60 81 85 0
65 75 0
83 104 0
47 50 59 0
57 88 0
45 55 0
69 80 0
92 94 96 113 0
100 102 0
63 64 76 0
97 103 105 107 0
58 110 111 0
52 66 70 99 0
108 114 0
53 86 115 0
117 118 0
77 101 119 0
42 44 62 0
39 40 109 0
33 35 36 38 0
32 68 79 98 0
29 31 116 0
28 54 0
27 74 0
24 25 26 0
23 106 0
22 41 0
-81 -91 0
-47 -91 0
-47 -81 0
-69 -113 0
-69 -103 0
-103 -113 0
-21 -32 0
-21 -26 0
-26 -32 0
-69 -91 0
-21 -91 0
-21 -69 0
-81 -113 0
-32 -81 0
-32 -113 0
-47 -103 0
-26 -47 0
-26 -103 0
-20 -61 0
-18 -61 0
-56 -61 0
-51 -61 0
-18 -20 0
-20 -56 0
-20 -51 0
-18 -56 0
-18 -51 0
-51 -56 0
-65 -90 0
-17 -90 0
-90 -104 0
-59 -90 0
-17 -65 0
-65 -104 0
-59 -65 0
-17 -104 0
-17 -59 0
-59 -104 0
-70 -82 0
-82 -114 0
-16 -82 0
-82 -115 0
-70 -114 0
-16 -70 0
-70 -115 0
-16 -114 0
-114 -115 0
-16 -115 0
-62 -117 0
-40 -117 0
-87 -117 0
-38 -117 0
-40 -62 0
-62 -87 0
-38 -62 0
-40 -87 0
-38 -40 0
-38 -87 0
-15 -31 0
-15 -54 0
-15 -27 0
-15 -25 0
-31 -54 0
-27 -31 0
-25 -31 0
-27 -54 0
-25 -54 0
-25 -27 0
-61 -90 0
-61 -82 0
-61 -117 0
-15 -61 0
-82 -90 0
-90 -117 0
-15 -90 0
-82 -117 0
-15 -82 0
-15 -117 0
-20 -65 0
-20 -70 0
-20 -62 0
-20 -31 0
-65 -70 0
-62 -65 0
-31 -65 0
-62 -70 0
-31 -70 0
-31 -62 0
-17 -18 0
-18 -114 0
-18 -40 0
-18 -54 0
-17 -114 0
-17 -40 0
-17 -54 0
-40 -114 0
-54 -114 0
-40 -54 0
-56 -104 0
-16 -56 0
-56 -87 0
-27 -56 0
-16 -104 0
-87 -104 0
-27 -104 0
-16 -87 0
-16 -27 0
-27 -87 0
-51 -59 0
-51 -115 0
-38 -51 0
-25 -51 0
-59 -115 0
-38 -59 0
-25 -59 0
-38 -115 0
-25 -115 0
-25 -38 0
-67 -72 0
-14 -72 0
-34 -72 0
-13 -72 0
-14 -67 0
-34 -67 0
-13 -67 0
-14 -34 0
-13 -14 0
-13 -34 0
-19 -57 0
-57 -89 0
-12 -57 0
-45 -57 0
-19 -89 0
-12 -19 0
-19 -45 0
-12 -89 0
-45 -89 0
-12 -45 0
-80 -92 0
-80 -100 0
-63 -80 0
-80 -97 0
-92 -100 0
-63 -92 0
-92 -97 0
-63 -100 0
-97 -100 0
-63 -97 0
-46 -110 0
-46 -66 0
-46 -108 0
-46 -86 0
-66 -110 0
-108 -110 0
-86 -110 0
-66 -108 0
-66 -86 0
-86 -108 0
-11 -68 0
-11 -116 0
-11 -28 0
-11 -24 0
-68 -116 0
-28 -68 0
-24 -68 0
-28 -116 0
-24 -116 0
-24 -28 0
-57 -72 0
-72 -80 0
-46 -72 0
-11 -72 0
-57 -80 0
-46 -57 0
-11 -57 0
-46 -80 0
-11 -80 0
-11 -46 0
-19 -67 0
-67 -92 0
-67 -110 0
-67 -68 0
-19 -92 0
-19 -110 0
-19 -68 0
-92 -110 0
-68 -92 0
-68 -110 0
-14 -89 0
-14 -100 0
-14 -66 0
-14 -116 0
-89 -100 0
-66 -89 0
-89 -116 0
-66 -100 0
-100 -116 0
-66 -116 0
-12 -34 0
-34 -63 0
-34 -108 0
-28 -34 0
-12 -63 0
-12 -108 0
-12 -28 0
-63 -108 0
-28 -63 0
-28 -108 0
-13 -45 0
-13 -97 0
-13 -86 0
-13 -24 0
-45 -97 0
-45 -86 0
-24 -45 0
-86 -97 0
-24 -97 0
-24 -86 0
-64 -105 0
-36 -109 0
-64 -109 0
-36 -105 0
-49 -95 0
-75 -95 0
-49 -75 0
-43 -58 0
-43 -52 0
-52 -58 0
-10 -79 0
-10 -29 0
-29 -79 0
-43 -95 0
-10 -95 0
-10 -43 0
-49 -58 0
-49 -79 0
-58 -79 0
-52 -75 0
-29 -75 0
-29 -52 0
-94 -102 0
-44 -119 0
-94 -119 0
-44 -102 0
-9 -60 0
-50 -60 0
-9 -50 0
-76 -96 0
-96 -107 0
-76 -107 0
-39 -101 0
-35 -101 0
-35 -39 0
-60 -96 0
-60 -101 0
-96 -101 0
-9 -76 0
-9 -39 0
-39 -76 0
-50 -107 0
-35 -50 0
-35 -107 0
-78 -84 0
-8 -84 0
-71 -84 0
-84 -112 0
-8 -78 0
-71 -78 0
-78 -112 0
-8 -71 0
-8 -112 0
-71 -112 0
-37 -88 0
-7 -88 0
-30 -88 0
-55 -88 0
-7 -37 0
-30 -37 0
-37 -55 0
-7 -30 0
-7 -55 0
-30 -55 0
-6 -111 0
-6 -99 0
-6 -48 0
-6 -53 0
-99 -111 0
-48 -111 0
-53 -111 0
-48 -99 0
-53 -99 0
-48 -53 0
-77 -118 0
-42 -118 0
-5 -118 0
-33 -118 0
-42 -77 0
-5 -77 0
-33 -77 0
-5 -42 0
-33 -42 0
-5 -33 0
-22 -23 0
-4 -23 0
-3 -23 0
-2 -23 0
-4 -22 0
-3 -22 0
-2 -22 0
-3 -4 0
-2 -4 0
-2 -3 0
-84 -88 0
-6 -84 0
-84 -118 0
-23 -84 0
-6 -88 0
-88 -118 0
-23 -88 0
-6 -118 0
-6 -23 0
-23 -118 0
-37 -78 0
-78 -111 0
-77 -78 0
-22 -78 0
-37 -111 0
-37 -77 0
-22 -37 0
-77 -111 0
-22 -111 0
-22 -77 0
-7 -8 0
-8 -99 0
-8 -42 0
-4 -8 0
-7 -99 0
-7 -42 0
-4 -7 0
-42 -99 0
-4 -99 0
-4 -42 0
-30 -71 0
-48 -71 0
-5 -71 0
-3 -71 0
-30 -48 0
-5 -30 0
-3 -30 0
-5 -48 0
-3 -48 0
-3 -5 0
-55 -112 0
-53 -112 0
-33 -112 0
-2 -112 0
-53 -55 0
-33 -55 0
-2 -55 0
-33 -53 0
-2 -53 0
-2 -33 0
-73 -85 0
-73 -83 0
-83 -85 0
-1 -98 0
-1 -74 0
-74 -98 0
-41 -106 0
-93 -106 0
-41 -93 0
-1 -73 0
-73 -106 0
-1 -106 0
-85 -98 0
-41 -85 0
-41 -98 0
-74 -83 0
-83 -93 0
-74 -93 0
